c read Graph
c width = 71
c time = 526 ms
c width = 7
c time = 717 ms
c width = 6
c time = 1628 ms
c width = 6
c time = 4144 ms
s td 78 7 84
b 1 1 2 15
b 2 2 3 15 16
b 3 12 13 27 28
b 4 3 15 16 29
b 5 12 27 28 42
b 6 43 57 58 72
b 7 56 69 70 83
b 8 43 58 72 73
b 9 56 69 82 83
b 10 3 4 18 30 31 43
b 11 4 5 18 30 31 43
b 12 5 18 30 31 43 44
b 13 5 18 31 43 44 59 74
b 14 5 18 31 44 45 59 74
b 15 5 18 31 32 45 59 74
b 16 5 18 32 45 46 59 74
b 17 5 18 32 33 46 59 74
b 18 5 18 20 33 46 59 74
b 19 5 6 20 33 46 59 74
b 20 6 7 20 33 46 59 74
b 21 7 20 33 46 59 60 74
b 22 7 20 33 46 47 60 74
b 23 7 20 33 34 47 60 74
b 24 7 20 21 34 47 60 74
b 25 7 8 21 34 47 60 74
b 26 8 21 34 47 60 61 74
b 27 8 21 34 47 48 61 74
b 28 8 21 34 35 48 61 74
b 29 8 21 22 35 48 61 74
b 30 8 9 22 35 48 61 74
b 31 9 22 35 48 61 74 75
b 32 9 22 35 48 61 62 75
b 33 9 22 35 48 62 75 76
b 34 9 22 35 48 62 63 76
b 35 9 22 35 48 50 63 76
b 36 9 22 35 37 50 63 76
b 37 9 22 24 37 50 63 76
b 38 9 11 24 37 50 63 76
b 39 11 24 37 50 63 76 78
b 40 11 24 37 50 63 65 78
b 41 11 24 37 50 52 65 78
b 42 11 24 37 39 52 65 78
b 43 11 24 26 39 52 65 78
b 44 11 26 39 52 65 78 80
b 45 11 26 39 52 65 67 80
b 46 11 26 39 52 54 67 80
b 47 11 26 39 41 54 67 80
b 48 11 26 41 54 56 67 80
b 49 3 17 18 30 31 43
b 50 3 17 29 30 43
b 51 3 16 17 29 30
b 52 50 63 64 65 78
b 53 35 48 49 50 63
b 54 63 76 77 78
b 55 5 18 19 20 33
b 56 65 78 79 80
b 57 37 50 51 52 65
b 58 22 35 36 37 50
b 59 43 44 59 73 74
b 60 43 44 58 59 73
b 61 9 22 23 24 37
b 62 52 65 66 67 80
b 63 24 37 38 39 52
b 64 39 52 53 54 67
b 65 41 54 56 67 80 82
b 66 41 54 56 67 68 82
b 67 41 54 55 56 68 82
b 68 55 56 68 69 82
b 69 67 80 81 82
b 70 9 10 11 24
b 71 26 39 40 41 54
b 72 11 26 41 42 56
b 73 11 12 26 41 42
b 74 12 26 27 41 42
b 75 11 24 25 26 39
b 76 70 83 84
b 77 57 71 72
b 78 13 14 28
1 2
2 4
3 78
3 5
4 51
5 74
6 77
6 8
7 76
7 9
8 60
9 68
10 49
10 11
11 12
12 13
13 59
13 14
14 15
15 16
16 17
17 18
18 55
18 19
19 20
20 21
21 22
22 23
23 24
24 25
25 26
26 27
27 28
28 29
29 30
30 31
31 32
32 33
33 34
34 35
35 53
35 36
36 58
36 37
37 61
37 38
38 70
38 39
39 54
39 40
40 52
40 41
41 57
41 42
42 63
42 43
43 75
43 44
44 56
44 45
45 62
45 46
46 64
46 47
47 71
47 48
48 72
48 65
49 50
50 51
59 60
65 69
65 66
66 67
67 68
72 73
73 74
